vaspfiles: writeposcar output
1.00000000000000     
8.4000000000  0.0000000000  0.0000000000
0.0000000000  8.4000000000  0.0000000000
0.0000000000  0.0000000000  8.4000000000
ELEM O
32 32
Direct
0.0000000000 0.0000000000 0.0000000000 ELEM  OC_1
0.0000000000 0.0000000000 0.5000000000 ELEM  OC_1
0.0000000000 0.5000000000 0.0000000000 ELEM  OC_1
0.0000000000 0.5000000000 0.5000000000 ELEM  OC_1
0.5000000000 0.0000000000 0.0000000000 ELEM  OC_1
0.5000000000 0.0000000000 0.5000000000 ELEM  OC_1
0.5000000000 0.5000000000 0.0000000000 ELEM  OC_1
0.5000000000 0.5000000000 0.5000000000 ELEM  OC_1
0.0000000000 0.2500000000 0.2500000000 ELEM  OC_1
0.0000000000 0.2500000000 0.7500000000 ELEM  OC_1
0.0000000000 0.7500000000 0.2500000000 ELEM  OC_1
0.0000000000 0.7500000000 0.7500000000 ELEM  OC_1
0.5000000000 0.2500000000 0.2500000000 ELEM  OC_1
0.5000000000 0.2500000000 0.7500000000 ELEM  OC_1
0.5000000000 0.7500000000 0.2500000000 ELEM  OC_1
0.5000000000 0.7500000000 0.7500000000 ELEM  OC_1
0.2500000000 0.0000000000 0.2500000000 ELEM  OC_1
0.2500000000 0.0000000000 0.7500000000 ELEM  OC_1
0.2500000000 0.5000000000 0.2500000000 ELEM  OC_1
0.2500000000 0.5000000000 0.7500000000 ELEM  OC_1
0.7500000000 0.0000000000 0.2500000000 ELEM  OC_1
0.7500000000 0.0000000000 0.7500000000 ELEM  OC_1
0.7500000000 0.5000000000 0.2500000000 ELEM  OC_1
0.7500000000 0.5000000000 0.7500000000 ELEM  OC_1
0.2500000000 0.2500000000 0.0000000000 ELEM  OC_1
0.2500000000 0.2500000000 0.5000000000 ELEM  OC_1
0.2500000000 0.7500000000 0.0000000000 ELEM  OC_1
0.2500000000 0.7500000000 0.5000000000 ELEM  OC_1
0.7500000000 0.2500000000 0.0000000000 ELEM  OC_1
0.7500000000 0.2500000000 0.5000000000 ELEM  OC_1
0.7500000000 0.7500000000 0.0000000000 ELEM  OC_1
0.7500000000 0.7500000000 0.5000000000 ELEM  OC_1
0.2500000000 0.2500000000 0.2500000000 O  OC_1
0.2500000000 0.2500000000 0.7500000000 O  OC_1
0.2500000000 0.7500000000 0.2500000000 O  OC_1
0.2500000000 0.7500000000 0.7500000000 O  OC_1
0.7500000000 0.2500000000 0.2500000000 O  OC_1
0.7500000000 0.2500000000 0.7500000000 O  OC_1
0.7500000000 0.7500000000 0.2500000000 O  OC_1
0.7500000000 0.7500000000 0.7500000000 O  OC_1
0.2500000000 0.0000000000 0.0000000000 O  OC_1
0.2500000000 0.0000000000 0.5000000000 O  OC_1
0.2500000000 0.5000000000 0.0000000000 O  OC_1
0.2500000000 0.5000000000 0.5000000000 O  OC_1
0.7500000000 0.0000000000 0.0000000000 O  OC_1
0.7500000000 0.0000000000 0.5000000000 O  OC_1
0.7500000000 0.5000000000 0.0000000000 O  OC_1
0.7500000000 0.5000000000 0.5000000000 O  OC_1
0.0000000000 0.2500000000 0.0000000000 O  OC_1
0.0000000000 0.2500000000 0.5000000000 O  OC_1
0.0000000000 0.7500000000 0.0000000000 O  OC_1
0.0000000000 0.7500000000 0.5000000000 O  OC_1
0.5000000000 0.2500000000 0.0000000000 O  OC_1
0.5000000000 0.2500000000 0.5000000000 O  OC_1
0.5000000000 0.7500000000 0.0000000000 O  OC_1
0.5000000000 0.7500000000 0.5000000000 O  OC_1
0.0000000000 0.0000000000 0.2500000000 O  OC_1
0.0000000000 0.0000000000 0.7500000000 O  OC_1
0.0000000000 0.5000000000 0.2500000000 O  OC_1
0.0000000000 0.5000000000 0.7500000000 O  OC_1
0.5000000000 0.0000000000 0.2500000000 O  OC_1
0.5000000000 0.0000000000 0.7500000000 O  OC_1
0.5000000000 0.5000000000 0.2500000000 O  OC_1
0.5000000000 0.5000000000 0.7500000000 O  OC_1
